63
125
87	7
86	12
85	7
84	5
83	13
82	9
81	13
80	6
79	5
78	4
77	9
76	12
75	10
74	8
73	8
72	10
71	3
70	8
69	6
68	5
67	9
66	4
65	7
64	9
63	6
62	6
61	11
60	6
59	7
58	10
57	7
56	6
55	5
54	11
53	12
52	10
51	7
50	6
49	11
48	7
47	5
46	13
45	8
44	8
43	8
42	7
41	3
40	11
39	6
38	6
37	11
36	4
35	7
34	14
33	9
32	1
31	5
30	7
29	16
28	9
27	8
26	8
25	9
